(set-info :smt-lib-version 2.6)
(set-logic UF)
(set-info :source |Benchmarks from the paper: "Extending Sledgehammer with SMT Solvers" by Jasmin Blanchette, Sascha Bohme, and Lawrence C. Paulson, CADE 2011.  Translated to SMT2 by Andrew Reynolds and Morgan Deters.|)
(set-info :category "industrial")
(set-info :status unknown)
(declare-sort S1 0)
(declare-sort S2 0)
(declare-sort S3 0)
(declare-sort S4 0)
(declare-sort S5 0)
(declare-sort S6 0)
(declare-sort S7 0)
(declare-sort S8 0)
(declare-sort S9 0)
(declare-sort S10 0)
(declare-sort S11 0)
(declare-sort S12 0)
(declare-sort S13 0)
(declare-sort S14 0)
(declare-sort S15 0)
(declare-fun f1 () S1)
(declare-fun f2 () S1)
(declare-fun f3 (S3 S2) S1)
(declare-fun f4 () S3)
(declare-fun f5 (S4 S3) S3)
(declare-fun f6 (S5 S3) S4)
(declare-fun f7 () S5)
(declare-fun f8 () S3)
(declare-fun f9 () S4)
(declare-fun f10 () S3)
(declare-fun f11 (S6 S2) S3)
(declare-fun f12 () S6)
(declare-fun f13 () S2)
(declare-fun f14 (S7 S3) S1)
(declare-fun f15 (S8 S2) S7)
(declare-fun f16 () S8)
(declare-fun f17 () S2)
(declare-fun f18 () S1)
(declare-fun f19 () S5)
(declare-fun f20 () S5)
(declare-fun f21 (S9 S3) S7)
(declare-fun f22 () S9)
(declare-fun f23 (S10 S1) S1)
(declare-fun f24 (S11 S1) S10)
(declare-fun f25 () S11)
(declare-fun f26 (S12 S2) S2)
(declare-fun f27 (S13 S2) S12)
(declare-fun f28 () S13)
(declare-fun f29 () S13)
(declare-fun f30 () S8)
(declare-fun f31 () S4)
(declare-fun f32 (S14 S1) S2)
(declare-fun f33 (S15 S3) S2)
(assert (not (= f1 f2)))
(assert (forall ((?v0 S2)) (= (= (f3 f4 ?v0) f1) true)))
(assert (not (exists ((?v0 S2)) (= (f3 (f5 (f6 f7 f8) (f5 f9 f10)) ?v0) f1))))
(assert (exists ((?v0 S2)) (forall ((?v1 S2)) (=> (= (f3 f10 ?v1) f1) (= (f3 (f11 f12 ?v1) ?v0) f1)))))
(assert (exists ((?v0 S2)) (forall ((?v1 S2)) (=> (= (f3 f10 ?v1) f1) (= (f3 (f11 f12 ?v1) ?v0) f1)))))
(assert (= (f3 f10 f13) f1))
(assert (exists ((?v0 S2)) (= (f3 f10 ?v0) f1)))
(assert (exists ((?v0 S2)) (= (f14 (f15 f16 ?v0) (f5 f9 f10)) f1)))
(assert (forall ((?v0 S2)) (=> (= (f3 f10 ?v0) f1) (= (f3 (f11 f12 ?v0) f17) f1))))
(assert (=> (forall ((?v0 S2) (?v1 S2)) (=> (= (f3 f10 ?v0) f1) (=> (forall ((?v2 S2)) (=> (= (f3 f10 ?v2) f1) (= (f3 (f11 f12 ?v2) ?v1) f1))) false))) false))
(assert (forall ((?v0 S2)) (= (f3 f8 ?v0) f1)))
(assert (forall ((?v0 S2)) (= (f14 (f15 f16 ?v0) f8) f1)))
(assert (forall ((?v0 S2)) (= (= (f14 (f15 f16 ?v0) f8) f1) true)))
(assert (forall ((?v0 S2)) (= (= (f3 f8 ?v0) f1) (= f18 f1))))
(assert (forall ((?v0 S3) (?v1 S3) (?v2 S2)) (=> (= (f3 (f5 (f6 f7 ?v0) ?v1) ?v2) f1) (= (f14 (f15 f16 ?v2) ?v0) f1))))
(assert (= f8 (f5 f9 f4)))
(assert (forall ((?v0 S3) (?v1 S3)) (= (f5 (f6 f19 ?v0) ?v1) (f5 f9 (f5 (f6 f7 ?v0) ?v1)))))
(assert (forall ((?v0 S3)) (=> (and (exists ((?v1 S2)) (= (f14 (f15 f16 ?v1) ?v0) f1)) (exists ((?v1 S2)) (= (f3 (f5 (f6 f7 f8) ?v0) ?v1) f1))) (exists ((?v1 S2)) (= (f3 (f5 (f6 f20 f8) ?v0) ?v1) f1)))))
(assert (forall ((?v0 S3)) (=> (exists ((?v1 S2)) (= (f14 (f15 f16 ?v1) ?v0) f1)) (=> (exists ((?v1 S2)) (= (f3 (f5 (f6 f7 f8) ?v0) ?v1) f1)) (exists ((?v1 S2)) (= (f3 (f5 (f6 f20 f8) ?v0) ?v1) f1))))))
(assert (forall ((?v0 S3)) (not (= (f14 (f21 f22 f8) ?v0) f1))))
(assert (forall ((?v0 S1)) (not (= (f23 (f24 f25 f18) ?v0) f1))))
(assert (forall ((?v0 S3)) (= (not (= ?v0 f8)) (= (f14 (f21 f22 ?v0) f8) f1))))
(assert (forall ((?v0 S1)) (= (not (= (= ?v0 f1) (= f18 f1))) (= (f23 (f24 f25 ?v0) f18) f1))))
(assert (forall ((?v0 S2)) (not (= (f3 (f11 f12 ?v0) ?v0) f1))))
(assert (forall ((?v0 S1)) (not (= (f23 (f24 f25 ?v0) ?v0) f1))))
(assert (forall ((?v0 S3)) (not (= (f14 (f21 f22 ?v0) ?v0) f1))))
(assert (forall ((?v0 S2) (?v1 S2)) (= (not (= ?v0 ?v1)) (or (= (f3 (f11 f12 ?v0) ?v1) f1) (= (f3 (f11 f12 ?v1) ?v0) f1)))))
(assert (forall ((?v0 S2) (?v1 S2)) (= (not (= (f3 (f11 f12 ?v0) ?v1) f1)) (or (= (f3 (f11 f12 ?v1) ?v0) f1) (= ?v0 ?v1)))))
(assert (forall ((?v0 S2) (?v1 S2)) (or (= (f3 (f11 f12 ?v0) ?v1) f1) (or (= ?v0 ?v1) (= (f3 (f11 f12 ?v1) ?v0) f1)))))
(assert (forall ((?v0 S2) (?v1 S2) (?v2 S2)) (let ((?v_0 (f11 f12 ?v0))) (= (= (f3 ?v_0 (f26 (f27 f28 ?v1) ?v2)) f1) (or (= (f3 ?v_0 ?v1) f1) (= (f3 ?v_0 ?v2) f1))))))
(assert (forall ((?v0 S2) (?v1 S2) (?v2 S2)) (let ((?v_0 (f11 f12 ?v0))) (= (= (f3 ?v_0 (f26 (f27 f29 ?v1) ?v2)) f1) (and (= (f3 ?v_0 ?v1) f1) (= (f3 ?v_0 ?v2) f1))))))
(assert (forall ((?v0 S2) (?v1 S2) (?v2 S2)) (= (= (f3 (f11 f12 (f26 (f27 f28 ?v0) ?v1)) ?v2) f1) (and (= (f3 (f11 f12 ?v0) ?v2) f1) (= (f3 (f11 f12 ?v1) ?v2) f1)))))
(assert (forall ((?v0 S2) (?v1 S2) (?v2 S2)) (= (= (f3 (f11 f12 (f26 (f27 f29 ?v0) ?v1)) ?v2) f1) (or (= (f3 (f11 f12 ?v0) ?v2) f1) (= (f3 (f11 f12 ?v1) ?v2) f1)))))
(assert (forall ((?v0 S2) (?v1 S2)) (=> (not (= (f3 (f11 f12 ?v0) ?v1) f1)) (= (not (= (f3 (f11 f12 ?v1) ?v0) f1)) (= ?v1 ?v0)))))
(assert (forall ((?v0 S2) (?v1 S2)) (=> (not (= ?v0 ?v1)) (=> (=> (= (f3 (f11 f12 ?v0) ?v1) f1) false) (=> (=> (= (f3 (f11 f12 ?v1) ?v0) f1) false) false)))))
(assert (forall ((?v0 S2) (?v1 S2)) (=> (= (f3 (f11 f12 ?v0) ?v1) f1) (not (= ?v0 ?v1)))))
(assert (forall ((?v0 S1) (?v1 S1)) (=> (= (f23 (f24 f25 ?v0) ?v1) f1) (not (= (= ?v0 f1) (= ?v1 f1))))))
(assert (forall ((?v0 S3) (?v1 S3)) (=> (= (f14 (f21 f22 ?v0) ?v1) f1) (not (= ?v0 ?v1)))))
(assert (forall ((?v0 S2) (?v1 S2)) (=> (= (f3 (f11 f12 ?v0) ?v1) f1) (not (= (f3 (f11 f12 ?v1) ?v0) f1)))))
(assert (forall ((?v0 S1) (?v1 S1)) (=> (= (f23 (f24 f25 ?v0) ?v1) f1) (not (= (f23 (f24 f25 ?v1) ?v0) f1)))))
(assert (forall ((?v0 S3) (?v1 S3)) (=> (= (f14 (f21 f22 ?v0) ?v1) f1) (not (= (f14 (f21 f22 ?v1) ?v0) f1)))))
(assert (forall ((?v0 S2) (?v1 S2)) (=> (= (f3 (f11 f12 ?v0) ?v1) f1) (= (not (= (f3 (f11 f12 ?v1) ?v0) f1)) true))))
(assert (forall ((?v0 S1) (?v1 S1)) (=> (= (f23 (f24 f25 ?v0) ?v1) f1) (= (not (= (f23 (f24 f25 ?v1) ?v0) f1)) true))))
(assert (forall ((?v0 S3) (?v1 S3)) (=> (= (f14 (f21 f22 ?v0) ?v1) f1) (= (not (= (f14 (f21 f22 ?v1) ?v0) f1)) true))))
(assert (forall ((?v0 S2) (?v1 S2)) (=> (= (f3 (f11 f12 ?v0) ?v1) f1) (= (= ?v0 ?v1) false))))
(assert (forall ((?v0 S1) (?v1 S1)) (=> (= (f23 (f24 f25 ?v0) ?v1) f1) (= (= (= ?v0 f1) (= ?v1 f1)) false))))
(assert (forall ((?v0 S3) (?v1 S3)) (=> (= (f14 (f21 f22 ?v0) ?v1) f1) (= (= ?v0 ?v1) false))))
(assert (forall ((?v0 S2) (?v1 S2)) (=> (= (f3 (f11 f12 ?v0) ?v1) f1) (= (= ?v1 ?v0) false))))
(assert (forall ((?v0 S1) (?v1 S1)) (=> (= (f23 (f24 f25 ?v0) ?v1) f1) (= (= (= ?v1 f1) (= ?v0 f1)) false))))
(assert (forall ((?v0 S3) (?v1 S3)) (=> (= (f14 (f21 f22 ?v0) ?v1) f1) (= (= ?v1 ?v0) false))))
(assert (forall ((?v0 S2) (?v1 S2) (?v2 S1)) (=> (= (f3 (f11 f12 ?v0) ?v1) f1) (= (=> (= (f3 (f11 f12 ?v1) ?v0) f1) (= ?v2 f1)) true))))
(assert (forall ((?v0 S1) (?v1 S1) (?v2 S1)) (=> (= (f23 (f24 f25 ?v0) ?v1) f1) (= (=> (= (f23 (f24 f25 ?v1) ?v0) f1) (= ?v2 f1)) true))))
(assert (forall ((?v0 S3) (?v1 S3) (?v2 S1)) (=> (= (f14 (f21 f22 ?v0) ?v1) f1) (= (=> (= (f14 (f21 f22 ?v1) ?v0) f1) (= ?v2 f1)) true))))
(assert (forall ((?v0 S2) (?v1 S2)) (=> (= (f3 (f11 f12 ?v0) ?v1) f1) (=> (= (f3 (f11 f12 ?v1) ?v0) f1) false))))
(assert (forall ((?v0 S1) (?v1 S1)) (=> (= (f23 (f24 f25 ?v0) ?v1) f1) (=> (= (f23 (f24 f25 ?v1) ?v0) f1) false))))
(assert (forall ((?v0 S3) (?v1 S3)) (=> (= (f14 (f21 f22 ?v0) ?v1) f1) (=> (= (f14 (f21 f22 ?v1) ?v0) f1) false))))
(assert (forall ((?v0 S2) (?v1 S2)) (=> (= (f3 (f11 f12 ?v0) ?v1) f1) (=> (= (f3 (f11 f12 ?v1) ?v0) f1) false))))
(assert (forall ((?v0 S1) (?v1 S1)) (=> (= (f23 (f24 f25 ?v0) ?v1) f1) (=> (= (f23 (f24 f25 ?v1) ?v0) f1) false))))
(assert (forall ((?v0 S3) (?v1 S3)) (=> (= (f14 (f21 f22 ?v0) ?v1) f1) (=> (= (f14 (f21 f22 ?v1) ?v0) f1) false))))
(assert (forall ((?v0 S2) (?v1 S2) (?v2 S2)) (=> (= ?v0 ?v1) (=> (= (f3 (f11 f12 ?v1) ?v2) f1) (= (f3 (f11 f12 ?v0) ?v2) f1)))))
(assert (forall ((?v0 S1) (?v1 S1) (?v2 S1)) (=> (= (= ?v0 f1) (= ?v1 f1)) (=> (= (f23 (f24 f25 ?v1) ?v2) f1) (= (f23 (f24 f25 ?v0) ?v2) f1)))))
(assert (forall ((?v0 S3) (?v1 S3) (?v2 S3)) (=> (= ?v0 ?v1) (=> (= (f14 (f21 f22 ?v1) ?v2) f1) (= (f14 (f21 f22 ?v0) ?v2) f1)))))
(assert (forall ((?v0 S2) (?v1 S2) (?v2 S2)) (let ((?v_0 (f11 f12 ?v2))) (=> (= ?v0 ?v1) (=> (= (f3 ?v_0 ?v1) f1) (= (f3 ?v_0 ?v0) f1))))))
(assert (forall ((?v0 S1) (?v1 S1) (?v2 S1)) (let ((?v_0 (f24 f25 ?v2))) (=> (= (= ?v0 f1) (= ?v1 f1)) (=> (= (f23 ?v_0 ?v1) f1) (= (f23 ?v_0 ?v0) f1))))))
(assert (forall ((?v0 S3) (?v1 S3) (?v2 S3)) (let ((?v_0 (f21 f22 ?v2))) (=> (= ?v0 ?v1) (=> (= (f14 ?v_0 ?v1) f1) (= (f14 ?v_0 ?v0) f1))))))
(assert (forall ((?v0 S2) (?v1 S2) (?v2 S2)) (let ((?v_0 (f11 f12 ?v0))) (=> (= (f3 ?v_0 ?v1) f1) (=> (= ?v1 ?v2) (= (f3 ?v_0 ?v2) f1))))))
(assert (forall ((?v0 S1) (?v1 S1) (?v2 S1)) (let ((?v_0 (f24 f25 ?v0))) (=> (= (f23 ?v_0 ?v1) f1) (=> (= (= ?v1 f1) (= ?v2 f1)) (= (f23 ?v_0 ?v2) f1))))))
(assert (forall ((?v0 S3) (?v1 S3) (?v2 S3)) (let ((?v_0 (f21 f22 ?v0))) (=> (= (f14 ?v_0 ?v1) f1) (=> (= ?v1 ?v2) (= (f14 ?v_0 ?v2) f1))))))
(assert (forall ((?v0 S2) (?v1 S2) (?v2 S2)) (=> (= (f3 (f11 f12 ?v0) ?v1) f1) (=> (= ?v0 ?v2) (= (f3 (f11 f12 ?v2) ?v1) f1)))))
(assert (forall ((?v0 S1) (?v1 S1) (?v2 S1)) (=> (= (f23 (f24 f25 ?v0) ?v1) f1) (=> (= (= ?v0 f1) (= ?v2 f1)) (= (f23 (f24 f25 ?v2) ?v1) f1)))))
(assert (forall ((?v0 S3) (?v1 S3) (?v2 S3)) (=> (= (f14 (f21 f22 ?v0) ?v1) f1) (=> (= ?v0 ?v2) (= (f14 (f21 f22 ?v2) ?v1) f1)))))
(assert (forall ((?v0 S2) (?v1 S2) (?v2 S2)) (let ((?v_0 (f11 f12 ?v0))) (=> (= (f3 ?v_0 ?v1) f1) (=> (= (f3 (f11 f12 ?v1) ?v2) f1) (= (f3 ?v_0 ?v2) f1))))))
(assert (forall ((?v0 S1) (?v1 S1) (?v2 S1)) (let ((?v_0 (f24 f25 ?v0))) (=> (= (f23 ?v_0 ?v1) f1) (=> (= (f23 (f24 f25 ?v1) ?v2) f1) (= (f23 ?v_0 ?v2) f1))))))
(assert (forall ((?v0 S3) (?v1 S3) (?v2 S3)) (let ((?v_0 (f21 f22 ?v0))) (=> (= (f14 ?v_0 ?v1) f1) (=> (= (f14 (f21 f22 ?v1) ?v2) f1) (= (f14 ?v_0 ?v2) f1))))))
(assert (forall ((?v0 S2) (?v1 S2) (?v2 S2)) (let ((?v_0 (f11 f12 ?v2))) (=> (= (f3 (f11 f12 ?v0) ?v1) f1) (=> (= (f3 ?v_0 ?v0) f1) (= (f3 ?v_0 ?v1) f1))))))
(assert (forall ((?v0 S1) (?v1 S1) (?v2 S1)) (let ((?v_0 (f24 f25 ?v2))) (=> (= (f23 (f24 f25 ?v0) ?v1) f1) (=> (= (f23 ?v_0 ?v0) f1) (= (f23 ?v_0 ?v1) f1))))))
(assert (forall ((?v0 S3) (?v1 S3) (?v2 S3)) (let ((?v_0 (f21 f22 ?v2))) (=> (= (f14 (f21 f22 ?v0) ?v1) f1) (=> (= (f14 ?v_0 ?v0) f1) (= (f14 ?v_0 ?v1) f1))))))
(assert (forall ((?v0 S2) (?v1 S2)) (=> (= (f3 (f11 f12 ?v0) ?v1) f1) (=> (=> (not false) (= (f3 (f11 f12 ?v1) ?v0) f1)) false))))
(assert (forall ((?v0 S1) (?v1 S1)) (=> (= (f23 (f24 f25 ?v0) ?v1) f1) (=> (=> (not false) (= (f23 (f24 f25 ?v1) ?v0) f1)) false))))
(assert (forall ((?v0 S3) (?v1 S3)) (=> (= (f14 (f21 f22 ?v0) ?v1) f1) (=> (=> (not false) (= (f14 (f21 f22 ?v1) ?v0) f1)) false))))
(assert (forall ((?v0 S3) (?v1 S3) (?v2 S2)) (=> (= (f3 (f5 (f6 f20 ?v0) ?v1) ?v2) f1) (= (f14 (f15 f16 ?v2) ?v0) f1))))
(assert (forall ((?v0 S3) (?v1 S3) (?v2 S2) (?v3 S2)) (let ((?v_0 (f5 (f6 f20 ?v0) ?v1))) (=> (= (f3 ?v_0 ?v2) f1) (=> (= (f3 ?v_0 ?v3) f1) (= ?v2 ?v3))))))
(assert (forall ((?v0 S2) (?v1 S2)) (=> (=> (= (f3 (f11 f12 ?v0) ?v1) f1) false) (=> (=> (= ?v0 ?v1) false) (=> (=> (= (f3 (f11 f12 ?v1) ?v0) f1) false) false)))))
(assert (forall ((?v0 S3) (?v1 S3) (?v2 S2)) (=> (= (f3 (f5 (f6 f20 ?v0) ?v1) ?v2) f1) (= (f3 (f5 (f6 f7 ?v0) ?v1) ?v2) f1))))
(assert (forall ((?v0 S3) (?v1 S3) (?v2 S2)) (=> (= (f3 (f5 (f6 f20 ?v0) ?v1) ?v2) f1) (= (f14 (f15 f30 ?v2) (f5 (f6 f19 ?v0) ?v1)) f1))))
(assert (forall ((?v0 S3) (?v1 S3) (?v2 S2)) (let ((?v_0 (f5 (f6 f7 ?v0) ?v1))) (=> (= (f3 ?v_0 ?v2) f1) (=> (= (f14 (f15 f30 ?v2) (f5 f9 ?v_0)) f1) (= (f3 (f5 (f6 f20 ?v0) ?v1) ?v2) f1))))))
(assert (forall ((?v0 S3) (?v1 S3) (?v2 S2)) (=> (= (f3 (f5 (f6 f20 ?v0) ?v1) ?v2) f1) (= (f3 (f5 f31 (f5 (f6 f7 ?v0) ?v1)) ?v2) f1))))
(assert (forall ((?v0 S3) (?v1 S3) (?v2 S2)) (=> (= (f3 (f5 f31 (f5 (f6 f7 ?v0) ?v1)) ?v2) f1) (= (f3 (f5 (f6 f20 ?v0) ?v1) ?v2) f1))))
(assert (forall ((?v0 S3) (?v1 S3) (?v2 S2)) (= (= (f3 (f5 (f6 f20 ?v0) ?v1) ?v2) f1) (= (f3 (f5 f31 (f5 (f6 f7 ?v0) ?v1)) ?v2) f1))))
(assert (forall ((?v0 S3)) (=> (forall ((?v1 S2)) (= (f14 (f15 f16 ?v1) ?v0) f1)) (= f8 ?v0))))
(assert (exists ((?v0 S2)) (= (f14 (f15 f16 ?v0) f8) f1)))
(assert (forall ((?v0 S2)) (exists ((?v1 S2)) (= (f3 (f11 f12 ?v0) ?v1) f1))))
(assert (forall ((?v0 S2)) (exists ((?v1 S2)) (= (f3 (f11 f12 ?v1) ?v0) f1))))
(assert (forall ((?v0 S2) (?v1 S2)) (=> (= (f3 (f11 f12 ?v0) ?v1) f1) (exists ((?v2 S2)) (and (= (f3 (f11 f12 ?v0) ?v2) f1) (= (f3 (f11 f12 ?v2) ?v1) f1))))))
(assert (forall ((?v0 S3) (?v1 S2)) (= (= (f3 (f5 f31 ?v0) ?v1) f1) (and (= (f3 ?v0 ?v1) f1) (= (f14 (f15 f30 ?v1) (f5 f9 ?v0)) f1)))))
(assert (forall ((?v0 S3) (?v1 S2)) (=> (= (f3 (f5 f31 ?v0) ?v1) f1) (= (f14 (f15 f30 ?v1) (f5 f9 ?v0)) f1))))
(assert (forall ((?v0 S3) (?v1 S2)) (=> (= (f3 (f5 f31 ?v0) ?v1) f1) (= (f3 ?v0 ?v1) f1))))
(assert (forall ((?v0 S3) (?v1 S2) (?v2 S1) (?v3 S2)) (=> (= (f23 (f24 f25 (f3 ?v0 ?v1)) ?v2) f1) (=> (= (f3 (f11 f12 ?v3) ?v1) f1) (=> (forall ((?v4 S2) (?v5 S2)) (=> (= (f3 (f11 f12 ?v5) ?v4) f1) (= (f23 (f24 f25 (f3 ?v0 ?v5)) (f3 ?v0 ?v4)) f1))) (= (f23 (f24 f25 (f3 ?v0 ?v3)) ?v2) f1))))))
(assert (forall ((?v0 S6) (?v1 S2) (?v2 S3) (?v3 S2)) (=> (= (f14 (f21 f22 (f11 ?v0 ?v1)) ?v2) f1) (=> (= (f3 (f11 f12 ?v3) ?v1) f1) (=> (forall ((?v4 S2) (?v5 S2)) (=> (= (f3 (f11 f12 ?v5) ?v4) f1) (= (f14 (f21 f22 (f11 ?v0 ?v5)) (f11 ?v0 ?v4)) f1))) (= (f14 (f21 f22 (f11 ?v0 ?v3)) ?v2) f1))))))
(assert (forall ((?v0 S14) (?v1 S1) (?v2 S2) (?v3 S1)) (=> (= (f3 (f11 f12 (f32 ?v0 ?v1)) ?v2) f1) (=> (= (f23 (f24 f25 ?v3) ?v1) f1) (=> (forall ((?v4 S1) (?v5 S1)) (=> (= (f23 (f24 f25 ?v5) ?v4) f1) (= (f3 (f11 f12 (f32 ?v0 ?v5)) (f32 ?v0 ?v4)) f1))) (= (f3 (f11 f12 (f32 ?v0 ?v3)) ?v2) f1))))))
(assert (forall ((?v0 S15) (?v1 S3) (?v2 S2) (?v3 S3)) (=> (= (f3 (f11 f12 (f33 ?v0 ?v1)) ?v2) f1) (=> (= (f14 (f21 f22 ?v3) ?v1) f1) (=> (forall ((?v4 S3) (?v5 S3)) (=> (= (f14 (f21 f22 ?v5) ?v4) f1) (= (f3 (f11 f12 (f33 ?v0 ?v5)) (f33 ?v0 ?v4)) f1))) (= (f3 (f11 f12 (f33 ?v0 ?v3)) ?v2) f1))))))
(assert (forall ((?v0 S2) (?v1 S12) (?v2 S2) (?v3 S2)) (=> (= ?v0 (f26 ?v1 ?v2)) (=> (= (f3 (f11 f12 ?v3) ?v2) f1) (=> (forall ((?v4 S2) (?v5 S2)) (=> (= (f3 (f11 f12 ?v5) ?v4) f1) (= (f3 (f11 f12 (f26 ?v1 ?v5)) (f26 ?v1 ?v4)) f1))) (= (f3 (f11 f12 (f26 ?v1 ?v3)) ?v0) f1))))))
(assert (forall ((?v0 S1) (?v1 S10) (?v2 S1) (?v3 S1)) (=> (= (= ?v0 f1) (= (f23 ?v1 ?v2) f1)) (=> (= (f23 (f24 f25 ?v3) ?v2) f1) (=> (forall ((?v4 S1) (?v5 S1)) (=> (= (f23 (f24 f25 ?v5) ?v4) f1) (= (f23 (f24 f25 (f23 ?v1 ?v5)) (f23 ?v1 ?v4)) f1))) (= (f23 (f24 f25 (f23 ?v1 ?v3)) ?v0) f1))))))
(assert (forall ((?v0 S3) (?v1 S4) (?v2 S3) (?v3 S3)) (=> (= ?v0 (f5 ?v1 ?v2)) (=> (= (f14 (f21 f22 ?v3) ?v2) f1) (=> (forall ((?v4 S3) (?v5 S3)) (=> (= (f14 (f21 f22 ?v5) ?v4) f1) (= (f14 (f21 f22 (f5 ?v1 ?v5)) (f5 ?v1 ?v4)) f1))) (= (f14 (f21 f22 (f5 ?v1 ?v3)) ?v0) f1))))))
(assert (forall ((?v0 S1) (?v1 S3) (?v2 S2) (?v3 S2)) (let ((?v_0 (f24 f25 ?v0))) (=> (= (f23 ?v_0 (f3 ?v1 ?v2)) f1) (=> (= (f3 (f11 f12 ?v2) ?v3) f1) (=> (forall ((?v4 S2) (?v5 S2)) (=> (= (f3 (f11 f12 ?v4) ?v5) f1) (= (f23 (f24 f25 (f3 ?v1 ?v4)) (f3 ?v1 ?v5)) f1))) (= (f23 ?v_0 (f3 ?v1 ?v3)) f1)))))))
(assert (forall ((?v0 S3) (?v1 S6) (?v2 S2) (?v3 S2)) (let ((?v_0 (f21 f22 ?v0))) (=> (= (f14 ?v_0 (f11 ?v1 ?v2)) f1) (=> (= (f3 (f11 f12 ?v2) ?v3) f1) (=> (forall ((?v4 S2) (?v5 S2)) (=> (= (f3 (f11 f12 ?v4) ?v5) f1) (= (f14 (f21 f22 (f11 ?v1 ?v4)) (f11 ?v1 ?v5)) f1))) (= (f14 ?v_0 (f11 ?v1 ?v3)) f1)))))))
(assert (forall ((?v0 S2) (?v1 S14) (?v2 S1) (?v3 S1)) (let ((?v_0 (f11 f12 ?v0))) (=> (= (f3 ?v_0 (f32 ?v1 ?v2)) f1) (=> (= (f23 (f24 f25 ?v2) ?v3) f1) (=> (forall ((?v4 S1) (?v5 S1)) (=> (= (f23 (f24 f25 ?v4) ?v5) f1) (= (f3 (f11 f12 (f32 ?v1 ?v4)) (f32 ?v1 ?v5)) f1))) (= (f3 ?v_0 (f32 ?v1 ?v3)) f1)))))))
(assert (forall ((?v0 S2) (?v1 S15) (?v2 S3) (?v3 S3)) (let ((?v_0 (f11 f12 ?v0))) (=> (= (f3 ?v_0 (f33 ?v1 ?v2)) f1) (=> (= (f14 (f21 f22 ?v2) ?v3) f1) (=> (forall ((?v4 S3) (?v5 S3)) (=> (= (f14 (f21 f22 ?v4) ?v5) f1) (= (f3 (f11 f12 (f33 ?v1 ?v4)) (f33 ?v1 ?v5)) f1))) (= (f3 ?v_0 (f33 ?v1 ?v3)) f1)))))))
(check-sat)
(exit)
